c "271836.clq"
p edge 100 1344
e 1 17
e 1 18
e 1 19
e 1 20
e 1 21
e 1 22
e 1 23
e 1 24
e 1 25
e 1 26
e 1 28
e 1 30
e 1 32
e 1 33
e 1 34
e 1 38
e 1 40
e 1 41
e 1 42
e 1 43
e 1 46
e 1 47
e 1 48
e 1 49
e 1 53
e 1 54
e 1 55
e 1 56
e 1 57
e 1 59
e 1 61
e 1 62
e 1 64
e 1 65
e 1 67
e 1 69
e 1 70
e 1 72
e 1 73
e 1 78
e 1 81
e 1 84
e 1 87
e 1 94
e 1 97
e 2 17
e 2 18
e 2 19
e 2 20
e 2 21
e 2 23
e 2 26
e 2 27
e 2 28
e 2 32
e 2 35
e 2 37
e 2 38
e 2 49
e 2 55
e 2 66
e 2 74
e 2 77
e 2 86
e 2 88
e 2 94
e 2 97
e 2 100
e 3 17
e 3 18
e 3 19
e 3 20
e 3 23
e 3 24
e 3 25
e 3 26
e 3 27
e 3 28
e 3 29
e 3 30
e 3 31
e 3 33
e 3 37
e 3 38
e 3 43
e 3 46
e 3 52
e 3 58
e 3 59
e 3 60
e 3 62
e 3 64
e 3 65
e 3 67
e 3 79
e 3 80
e 3 81
e 3 89
e 3 92
e 3 93
e 3 95
e 3 100
e 4 17
e 4 20
e 4 22
e 4 42
e 4 55
e 4 67
e 4 90
e 5 17
e 5 18
e 5 19
e 5 20
e 5 21
e 5 22
e 5 24
e 5 25
e 5 26
e 5 27
e 5 28
e 5 29
e 5 30
e 5 31
e 5 36
e 5 38
e 5 41
e 5 42
e 5 45
e 5 46
e 5 47
e 5 48
e 5 49
e 5 52
e 5 54
e 5 55
e 5 56
e 5 58
e 5 62
e 5 67
e 5 68
e 5 70
e 5 76
e 5 77
e 5 82
e 5 86
e 5 92
e 5 95
e 5 96
e 5 97
e 6 17
e 6 18
e 6 19
e 6 20
e 6 21
e 6 22
e 6 24
e 6 25
e 6 28
e 6 29
e 6 30
e 6 33
e 6 36
e 6 45
e 6 54
e 6 60
e 6 66
e 6 71
e 6 81
e 6 82
e 6 84
e 6 90
e 6 91
e 6 96
e 6 98
e 7 17
e 7 18
e 7 19
e 7 21
e 7 23
e 7 26
e 7 30
e 7 31
e 7 33
e 7 35
e 7 42
e 7 45
e 7 57
e 7 72
e 7 77
e 7 85
e 8 17
e 8 18
e 8 19
e 8 20
e 8 21
e 8 22
e 8 25
e 8 26
e 8 28
e 8 32
e 8 35
e 8 36
e 8 37
e 8 39
e 8 41
e 8 44
e 8 46
e 8 50
e 8 52
e 8 53
e 8 55
e 8 57
e 8 60
e 8 64
e 8 66
e 8 67
e 8 71
e 8 73
e 8 75
e 8 79
e 8 83
e 8 89
e 8 93
e 8 98
e 9 17
e 9 18
e 9 20
e 9 23
e 9 24
e 9 28
e 9 35
e 9 37
e 9 40
e 9 43
e 9 46
e 9 47
e 9 50
e 9 54
e 9 56
e 9 62
e 9 69
e 9 72
e 9 73
e 9 82
e 9 83
e 9 93
e 9 95
e 9 98
e 10 17
e 10 18
e 10 19
e 10 20
e 10 21
e 10 23
e 10 35
e 10 37
e 10 39
e 10 49
e 10 56
e 10 62
e 10 63
e 10 70
e 10 71
e 10 72
e 10 78
e 10 79
e 10 84
e 10 89
e 10 95
e 11 17
e 11 18
e 11 19
e 11 20
e 11 22
e 11 23
e 11 24
e 11 25
e 11 26
e 11 27
e 11 28
e 11 33
e 11 36
e 11 40
e 11 41
e 11 46
e 11 60
e 11 73
e 11 82
e 11 83
e 11 93
e 11 100
e 12 17
e 12 18
e 12 19
e 12 21
e 12 22
e 12 27
e 12 29
e 12 32
e 12 34
e 12 36
e 12 42
e 12 58
e 12 59
e 12 68
e 12 69
e 12 87
e 12 88
e 12 90
e 12 95
e 13 17
e 13 18
e 13 19
e 13 20
e 13 21
e 13 22
e 13 25
e 13 26
e 13 34
e 13 40
e 13 42
e 13 45
e 13 56
e 13 57
e 13 58
e 13 63
e 13 75
e 13 86
e 13 92
e 13 97
e 13 98
e 14 17
e 14 18
e 14 19
e 14 21
e 14 22
e 14 23
e 14 24
e 14 33
e 14 37
e 14 40
e 14 66
e 14 81
e 14 94
e 15 17
e 15 18
e 15 19
e 15 20
e 15 21
e 15 22
e 15 23
e 15 24
e 15 25
e 15 27
e 15 29
e 15 31
e 15 33
e 15 34
e 15 35
e 15 37
e 15 39
e 15 40
e 15 43
e 15 47
e 15 50
e 15 52
e 15 55
e 15 56
e 15 57
e 15 62
e 15 63
e 15 68
e 15 70
e 15 74
e 15 81
e 15 87
e 15 89
e 15 92
e 16 17
e 16 18
e 16 19
e 16 20
e 16 21
e 16 22
e 16 23
e 16 24
e 16 26
e 16 27
e 16 29
e 16 31
e 16 34
e 16 43
e 16 65
e 16 71
e 16 75
e 16 78
e 16 82
e 16 100
e 17 18
e 17 19
e 17 20
e 17 21
e 17 22
e 17 23
e 17 24
e 17 25
e 17 26
e 17 27
e 17 29
e 17 30
e 17 31
e 17 32
e 17 33
e 17 35
e 17 36
e 17 37
e 17 38
e 17 39
e 17 40
e 17 41
e 17 43
e 17 44
e 17 45
e 17 46
e 17 48
e 17 50
e 17 51
e 17 54
e 17 56
e 17 58
e 17 59
e 17 60
e 17 61
e 17 63
e 17 65
e 17 66
e 17 67
e 17 74
e 17 76
e 17 77
e 17 79
e 17 85
e 17 87
e 17 88
e 17 91
e 17 97
e 17 98
e 17 100
e 18 19
e 18 20
e 18 21
e 18 22
e 18 23
e 18 24
e 18 25
e 18 26
e 18 27
e 18 28
e 18 29
e 18 30
e 18 33
e 18 34
e 18 35
e 18 38
e 18 40
e 18 42
e 18 47
e 18 50
e 18 51
e 18 52
e 18 53
e 18 54
e 18 56
e 18 60
e 18 63
e 18 65
e 18 68
e 18 73
e 18 84
e 18 96
e 19 20
e 19 21
e 19 22
e 19 23
e 19 24
e 19 25
e 19 26
e 19 27
e 19 29
e 19 30
e 19 31
e 19 34
e 19 35
e 19 36
e 19 38
e 19 39
e 19 40
e 19 41
e 19 42
e 19 43
e 19 44
e 19 45
e 19 47
e 19 48
e 19 49
e 19 50
e 19 51
e 19 52
e 19 53
e 19 55
e 19 57
e 19 59
e 19 64
e 19 68
e 19 69
e 19 71
e 19 78
e 19 83
e 19 86
e 19 99
e 20 21
e 20 22
e 20 23
e 20 24
e 20 25
e 20 26
e 20 27
e 20 28
e 20 32
e 20 34
e 20 35
e 20 37
e 20 38
e 20 40
e 20 42
e 20 46
e 20 47
e 20 51
e 20 52
e 20 54
e 20 55
e 20 57
e 20 58
e 20 59
e 20 60
e 20 61
e 20 63
e 20 65
e 20 66
e 20 73
e 20 75
e 20 76
e 20 79
e 20 80
e 20 81
e 20 84
e 20 86
e 20 88
e 20 91
e 20 94
e 20 100
e 21 22
e 21 23
e 21 24
e 21 25
e 21 28
e 21 29
e 21 30
e 21 31
e 21 32
e 21 34
e 21 35
e 21 36
e 21 39
e 21 40
e 21 41
e 21 42
e 21 44
e 21 45
e 21 47
e 21 49
e 21 55
e 21 57
e 21 61
e 21 63
e 21 65
e 21 66
e 21 70
e 21 72
e 21 73
e 21 76
e 21 84
e 21 87
e 21 90
e 21 93
e 21 94
e 21 95
e 22 23
e 22 24
e 22 25
e 22 26
e 22 27
e 22 28
e 22 29
e 22 30
e 22 31
e 22 33
e 22 34
e 22 35
e 22 38
e 22 39
e 22 40
e 22 41
e 22 43
e 22 44
e 22 47
e 22 52
e 22 56
e 22 58
e 22 59
e 22 63
e 22 68
e 22 71
e 22 72
e 22 75
e 22 76
e 22 80
e 22 86
e 22 87
e 22 89
e 22 96
e 22 98
e 23 24
e 23 25
e 23 27
e 23 28
e 23 31
e 23 32
e 23 33
e 23 34
e 23 41
e 23 48
e 23 50
e 23 53
e 23 61
e 23 63
e 23 65
e 23 70
e 23 74
e 23 75
e 23 98
e 23 99
e 24 25
e 24 26
e 24 27
e 24 29
e 24 30
e 24 31
e 24 32
e 24 33
e 24 36
e 24 38
e 24 41
e 24 43
e 24 44
e 24 45
e 24 48
e 24 49
e 24 51
e 24 52
e 24 53
e 24 57
e 24 59
e 24 60
e 24 61
e 24 63
e 24 68
e 24 69
e 24 71
e 24 73
e 24 74
e 24 77
e 24 78
e 24 82
e 24 83
e 24 85
e 24 90
e 24 100
e 25 26
e 25 27
e 25 28
e 25 29
e 25 30
e 25 31
e 25 32
e 25 33
e 25 34
e 25 35
e 25 37
e 25 38
e 25 39
e 25 40
e 25 45
e 25 46
e 25 47
e 25 50
e 25 53
e 25 55
e 25 57
e 25 60
e 25 61
e 25 63
e 25 64
e 25 65
e 25 66
e 25 67
e 25 68
e 25 71
e 25 73
e 25 74
e 25 76
e 25 77
e 25 79
e 25 80
e 25 81
e 25 85
e 25 86
e 25 91
e 25 94
e 25 95
e 25 96
e 26 27
e 26 28
e 26 29
e 26 30
e 26 31
e 26 32
e 26 35
e 26 38
e 26 39
e 26 40
e 26 41
e 26 42
e 26 43
e 26 44
e 26 45
e 26 48
e 26 49
e 26 53
e 26 54
e 26 56
e 26 57
e 26 59
e 26 61
e 26 62
e 26 67
e 26 68
e 26 70
e 26 71
e 26 74
e 26 76
e 26 78
e 26 79
e 26 80
e 26 89
e 26 92
e 26 97
e 26 98
e 27 28
e 27 29
e 27 30
e 27 31
e 27 32
e 27 33
e 27 34
e 27 35
e 27 36
e 27 37
e 27 38
e 27 39
e 27 41
e 27 42
e 27 43
e 27 45
e 27 46
e 27 47
e 27 49
e 27 51
e 27 53
e 27 61
e 27 62
e 27 64
e 27 69
e 27 71
e 27 72
e 27 73
e 27 74
e 27 76
e 27 78
e 27 82
e 27 84
e 27 87
e 27 88
e 27 89
e 27 90
e 27 91
e 27 96
e 28 29
e 28 30
e 28 31
e 28 32
e 28 33
e 28 36
e 28 38
e 28 43
e 28 44
e 28 46
e 28 47
e 28 48
e 28 53
e 28 56
e 28 62
e 28 65
e 28 68
e 28 69
e 28 70
e 28 75
e 28 77
e 28 79
e 28 87
e 28 92
e 28 93
e 28 95
e 28 97
e 28 100
e 29 30
e 29 32
e 29 34
e 29 35
e 29 36
e 29 37
e 29 39
e 29 41
e 29 42
e 29 44
e 29 46
e 29 49
e 29 52
e 29 57
e 29 60
e 29 66
e 29 69
e 29 75
e 29 77
e 29 80
e 29 82
e 29 86
e 29 87
e 29 88
e 30 31
e 30 32
e 30 36
e 30 37
e 30 39
e 30 41
e 30 49
e 30 53
e 30 55
e 30 60
e 30 65
e 30 79
e 30 84
e 30 88
e 30 96
e 30 97
e 30 99
e 30 100
e 31 32
e 31 33
e 31 36
e 31 39
e 31 41
e 31 43
e 31 44
e 31 45
e 31 46
e 31 48
e 31 49
e 31 50
e 31 51
e 31 54
e 31 76
e 31 78
e 31 80
e 31 86
e 31 92
e 32 34
e 32 39
e 32 40
e 32 43
e 32 44
e 32 48
e 32 52
e 32 62
e 32 63
e 32 64
e 32 65
e 32 66
e 32 70
e 32 74
e 32 76
e 32 90
e 32 92
e 32 95
e 32 99
e 33 34
e 33 37
e 33 40
e 33 44
e 33 45
e 33 47
e 33 48
e 33 51
e 33 52
e 33 53
e 33 58
e 33 60
e 33 64
e 33 68
e 33 69
e 33 72
e 33 73
e 33 75
e 33 79
e 33 83
e 33 85
e 33 88
e 33 91
e 33 94
e 33 99
e 34 36
e 34 39
e 34 49
e 34 50
e 34 55
e 34 56
e 34 58
e 34 59
e 34 61
e 34 70
e 34 77
e 34 82
e 34 83
e 35 36
e 35 37
e 35 38
e 35 39
e 35 44
e 35 45
e 35 48
e 35 51
e 35 52
e 35 54
e 35 55
e 35 59
e 35 62
e 35 67
e 35 73
e 35 79
e 35 83
e 35 90
e 35 95
e 35 97
e 35 98
e 35 100
e 36 37
e 36 42
e 36 46
e 36 50
e 36 59
e 36 60
e 36 61
e 36 62
e 36 77
e 36 79
e 36 82
e 36 88
e 36 90
e 36 91
e 36 92
e 37 38
e 37 42
e 37 43
e 37 45
e 37 46
e 37 47
e 37 49
e 37 50
e 37 52
e 37 53
e 37 67
e 37 70
e 37 71
e 37 76
e 37 79
e 37 81
e 37 84
e 37 85
e 37 89
e 37 93
e 37 96
e 38 41
e 38 47
e 38 48
e 38 50
e 38 51
e 38 54
e 38 57
e 38 58
e 38 63
e 38 64
e 38 69
e 38 72
e 38 73
e 38 77
e 38 91
e 38 93
e 38 99
e 39 51
e 39 53
e 39 54
e 39 58
e 39 63
e 39 64
e 39 69
e 39 72
e 39 73
e 39 74
e 39 83
e 39 84
e 39 85
e 39 94
e 40 50
e 40 58
e 40 60
e 40 64
e 40 67
e 40 69
e 40 83
e 40 85
e 40 90
e 40 93
e 40 94
e 40 97
e 40 98
e 41 42
e 41 44
e 41 45
e 41 59
e 41 61
e 41 71
e 41 78
e 41 82
e 41 84
e 41 87
e 41 89
e 41 94
e 41 100
e 42 43
e 42 44
e 42 66
e 42 77
e 42 81
e 42 83
e 42 88
e 43 44
e 43 46
e 43 49
e 43 50
e 43 53
e 43 57
e 43 59
e 43 60
e 43 62
e 43 66
e 43 77
e 43 78
e 43 79
e 43 81
e 43 84
e 43 85
e 43 92
e 43 93
e 43 97
e 43 98
e 43 99
e 44 51
e 44 56
e 44 67
e 44 73
e 44 97
e 45 47
e 45 48
e 45 51
e 45 54
e 45 59
e 45 64
e 45 71
e 45 72
e 45 85
e 45 91
e 45 95
e 45 98
e 46 48
e 46 51
e 46 52
e 46 56
e 46 70
e 46 71
e 46 74
e 46 76
e 46 78
e 46 83
e 46 86
e 46 88
e 46 89
e 46 93
e 47 48
e 47 49
e 47 52
e 47 54
e 47 55
e 47 57
e 47 58
e 47 61
e 47 63
e 47 64
e 47 68
e 47 74
e 47 78
e 47 80
e 47 84
e 47 90
e 47 96
e 47 100
e 48 50
e 48 51
e 48 62
e 48 70
e 48 75
e 48 81
e 48 83
e 48 85
e 48 86
e 48 92
e 49 53
e 49 55
e 49 60
e 49 62
e 49 66
e 49 69
e 49 81
e 49 84
e 49 96
e 50 51
e 50 55
e 50 56
e 50 58
e 50 59
e 50 62
e 50 87
e 50 92
e 50 93
e 50 95
e 50 99
e 51 54
e 51 64
e 51 65
e 51 66
e 51 72
e 51 85
e 51 86
e 51 94
e 52 64
e 52 65
e 52 91
e 52 92
e 52 93
e 52 94
e 52 96
e 53 54
e 53 61
e 53 66
e 53 68
e 53 71
e 53 75
e 53 82
e 53 84
e 53 87
e 53 88
e 54 56
e 54 58
e 54 70
e 54 71
e 54 72
e 54 77
e 54 83
e 54 85
e 54 91
e 54 92
e 54 96
e 55 57
e 55 64
e 55 66
e 55 67
e 55 75
e 55 100
e 56 69
e 56 70
e 56 76
e 56 78
e 56 89
e 57 58
e 57 65
e 57 68
e 57 69
e 57 74
e 57 82
e 57 88
e 57 97
e 58 61
e 59 61
e 59 63
e 59 67
e 59 69
e 59 80
e 59 91
e 60 67
e 60 74
e 60 80
e 60 86
e 60 90
e 60 92
e 60 94
e 60 95
e 60 96
e 60 97
e 61 65
e 61 74
e 61 75
e 61 79
e 61 81
e 61 96
e 61 97
e 62 72
e 62 87
e 62 88
e 63 75
e 63 77
e 63 80
e 63 83
e 63 85
e 63 89
e 64 67
e 64 68
e 64 70
e 64 75
e 64 78
e 64 85
e 64 86
e 64 87
e 64 99
e 64 100
e 66 68
e 66 72
e 66 74
e 66 75
e 66 81
e 66 95
e 67 78
e 67 80
e 67 86
e 67 90
e 67 91
e 67 92
e 67 93
e 68 80
e 68 82
e 68 91
e 69 76
e 69 80
e 69 94
e 69 99
e 70 72
e 70 78
e 70 89
e 70 93
e 70 98
e 71 81
e 71 88
e 71 93
e 71 95
e 71 99
e 72 73
e 72 76
e 72 77
e 73 76
e 73 87
e 73 98
e 74 81
e 75 82
e 75 98
e 76 80
e 76 82
e 76 86
e 77 80
e 77 85
e 77 90
e 77 94
e 77 99
e 78 79
e 78 84
e 79 89
e 79 95
e 79 100
e 80 88
e 80 90
e 81 83
e 82 89
e 82 91
e 82 96
e 83 87
e 83 98
e 84 99
e 86 91
e 87 90
e 88 89
e 88 94
e 88 97
e 92 99
e 93 96
e 93 100
e 96 99
e 97 99
